************************************************************************
file with basedata            : md335_.bas
initial value random generator: 2141629646
************************************************************************
projects                      :  1
jobs (incl. supersource/sink ):  22
horizon                       :  170
RESOURCES
  - renewable                 :  2   R
  - nonrenewable              :  2   N
  - doubly constrained        :  0   D
************************************************************************
PROJECT INFORMATION:
pronr.  #jobs rel.date duedate tardcost  MPM-Time
    1     20      0       21       13       21
************************************************************************
PRECEDENCE RELATIONS:
jobnr.    #modes  #successors   successors
   1        1          3           2   3   4
   2        3          1          12
   3        3          3           5   6  10
   4        3          3           9  17  21
   5        3          3           9  12  13
   6        3          3           7   8  11
   7        3          2          18  21
   8        3          3          15  17  20
   9        3          1          11
  10        3          3          13  16  20
  11        3          1          19
  12        3          3          14  16  20
  13        3          1          15
  14        3          2          15  18
  15        3          2          19  21
  16        3          1          17
  17        3          1          18
  18        3          1          19
  19        3          1          22
  20        3          1          22
  21        3          1          22
  22        1          0        
************************************************************************
REQUESTS/DURATIONS:
jobnr. mode duration  R 1  R 2  N 1  N 2
------------------------------------------------------------------------
  1      1     0       0    0    0    0
  2      1     2      10    8   10    0
         2     3      10    4    0    2
         3     9      10    1    5    0
  3      1     1       4    4    2    0
         2     1       4    3    0    2
         3     9       3    1    2    0
  4      1     6      10    8    0    3
         2     9       8    6    4    0
         3     9       9    5    5    0
  5      1     5      10    5    0    5
         2     7       9    5    0    5
         3     9       9    5    6    0
  6      1     2       2   10    0    8
         2     5       2    9    0    6
         3     9       2    9    0    3
  7      1     4      10    9    0    4
         2     6       8    9    0    3
         3     8       6    8   10    0
  8      1     7       8    6    0    6
         2    10       6    4    9    0
         3    10       7    4    0    5
  9      1     2       8    8    0   10
         2     3       7    5   10    0
         3     6       5    3    0    8
 10      1     1       8    9    0   10
         2     2       7    6    0    8
         3     7       1    3    0    4
 11      1     2       8   10    0    9
         2     7       6    9    0    9
         3     8       4    8    0    8
 12      1     2       4    8    9    0
         2     6       3    8    9    0
         3     6       4    8    8    0
 13      1     1      10   10    0    6
         2     3       9   10    9    0
         3     8       9   10    8    0
 14      1     3       6    8    9    0
         2     7       6    7    0    7
         3     8       5    6    0    6
 15      1     4       8    7    9    0
         2     5       7    7    9    0
         3     9       6    4    8    0
 16      1     1       3    8    7    0
         2     9       3    8    0    4
         3    10       2    7    0    3
 17      1     2       9    5    8    0
         2     6       7    4    8    0
         3     9       2    3    7    0
 18      1     5      10   10    0    9
         2     8       8    8    5    0
         3     9       7    7    4    0
 19      1     4       8    9    2    0
         2     5       7    8    0    9
         3     7       6    7    0    9
 20      1     7       7    7    0   10
         2     9       3    6    3    0
         3    10       2    5    3    0
 21      1     3       5    9    7    0
         2     5       5    5    7    0
         3    10       4    5    0   10
 22      1     0       0    0    0    0
************************************************************************
RESOURCEAVAILABILITIES:
  R 1  R 2  N 1  N 2
   33   33   72   65
************************************************************************
MAXIMAL LAGS:
from  to  type  delay
    1   22   ES      0
    1    2   ES      0
    2   22   ES      0
    1    3   ES      0
    3   22   ES      0
    1    4   ES      0
    4   22   ES      0
    1    5   ES      0
    5   22   ES      0
    1    6   ES      0
    6   22   ES      0
    1    7   ES      0
    7   22   ES      0
    1    8   ES      0
    8   22   ES      0
    1    9   ES      0
    9   22   ES      0
    1   10   ES      0
   10   22   ES      0
    1   11   ES      0
   11   22   ES      0
    1   12   ES      0
   12   22   ES      0
    1   13   ES      0
   13   22   ES      0
    1   14   ES      0
   14   22   ES      0
    1   15   ES      0
   15   22   ES      0
    1   16   ES      0
   16   22   ES      0
    1   17   ES      0
   17   22   ES      0
    1   18   ES      0
   18   22   ES      0
    1   19   ES      0
   19   22   ES      0
    1   20   ES      0
   20   22   ES      0
    1   21   ES      0
   21   22   ES      0
    1   22   ES      0
    2   12   SS     -3
    2   12   SE     12
    2   12   ES     -2
    2   12   EE     -8
    3    5   SS     12
    3    5   SE     -9
    3    5   ES      4
    3    5   EE      9
    3    6   SS     -8
    3    6   SE     -6
    3    6   ES     11
    3    6   EE    -11
    3   10   SS      2
    3   10   SE      0
    3   10   ES     10
    3   10   EE      4
    4    9   SS     -9
    4    9   SE    -12
    4    9   ES     -3
    4    9   EE    -11
    4   17   SS      9
    4   17   SE      7
    4   17   ES    -10
    4   17   EE     -2
    4   21   SS      2
    4   21   SE    -11
    4   21   ES     -9
    4   21   EE      4
    5    9   SS     12
    5    9   SE      9
    5    9   ES     11
    5    9   EE     -3
    5   12   SS    -12
    5   12   SE      6
    5   12   ES     12
    5   12   EE     -3
    5   13   SS      8
    5   13   SE     -6
    5   13   ES     -2
    5   13   EE     -6
    6    7   SS     -6
    6    7   SE     -3
    6    7   ES     -4
    6    7   EE      5
    6    8   SS     -2
    6    8   SE     12
    6    8   ES      2
    6    8   EE      9
    6   11   SS     -9
    6   11   SE     -4
    6   11   ES     -8
    6   11   EE     -7
    7   18   SS     -4
    7   18   SE     -9
    7   18   ES    -12
    7   18   EE      7
    7   21   SS      5
    7   21   SE      4
    7   21   ES     -9
    7   21   EE     -6
    8   15   SS      5
    8   15   SE     -1
    8   15   ES      5
    8   15   EE     -2
    8   17   SS     -4
    8   17   SE     -8
    8   17   ES     10
    8   17   EE     -3
    8   20   SS      6
    8   20   SE     -5
    8   20   ES     -7
    8   20   EE    -10
    9   11   SS     -3
    9   11   SE      7
    9   11   ES     -2
    9   11   EE      5
   10   13   SS      2
   10   13   SE    -11
   10   13   ES     -8
   10   13   EE    -12
   10   16   SS      3
   10   16   SE      9
   10   16   ES    -11
   10   16   EE     -9
   10   20   SS      0
   10   20   SE    -11
   10   20   ES    -10
   10   20   EE      1
   11   19   SS      0
   11   19   SE     -7
   11   19   ES     10
   11   19   EE      7
   12   14   SS      6
   12   14   SE      8
   12   14   ES     10
   12   14   EE     10
   12   16   SS      2
   12   16   SE      7
   12   16   ES     -1
   12   16   EE     -3
   12   20   SS     -2
   12   20   SE     -6
   12   20   ES     10
   12   20   EE     12
   13   15   SS      9
   13   15   SE      5
   13   15   ES    -10
   13   15   EE     12
   14   15   SS     12
   14   15   SE      2
   14   15   ES      6
   14   15   EE     -8
   14   18   SS    -10
   14   18   SE     10
   14   18   ES      2
   14   18   EE     -9
   15   19   SS      2
   15   19   SE     -3
   15   19   ES      9
   15   19   EE      8
   15   21   SS     10
   15   21   SE     12
   15   21   ES      2
   15   21   EE      3
   16   17   SS     -5
   16   17   SE     -5
   16   17   ES     -8
   16   17   EE      7
   17   18   SS     -4
   17   18   SE     -1
   18   17   SE      0
   17   18   ES      0
   17   18   EE     -7
   18   19   SS     10
   18   19   SE      9
   18   19   ES     -2
   18   19   EE     -2
************************************************************************
